p cnf 256 577
13 -14 0
-13 14 0
23 -24 0
24 -23 0
-25 -23 0
23 25 0
-26 -14 0
26 14 0
14 -27 0
-27 -10 0
-26 -27 0
10 26 27 -14 0
-28 14 0
28 -14 0
-29 -10 0
-29 -28 0
10 28 29 0
-30 -14 0
-29 -30 0
14 29 30 0
-30 -31 0
-27 -31 0
31 27 30 0
14 -32 0
-32 -10 0
28 -32 0
10 32 -28 -14 0
-32 -33 0
-33 -30 0
33 32 30 0
31 -34 0
-31 34 0
-35 -34 0
34 35 0
-36 35 0
-25 -36 0
-36 -24 0
24 25 36 -35 0
-36 -38 0
38 36 0
-41 -10 0
10 41 0
-42 -14 41 0
-41 -14 42 0
14 42 0
-44 -10 0
10 44 0
-46 14 44 0
46 -14 0
14 -44 46 0
-47 42 0
-42 47 0
-47 -48 0
48 47 0
38 -48 0
-52 -35 0
-25 -52 0
52 25 35 0
-54 -52 0
54 52 0
-55 -48 0
-55 -54 0
48 54 55 0
-55 -57 0
57 55 0
-58 -10 -14 0
10 58 -14 0
58 14 0
68 -69 0
-68 69 0
-70 -64 0
-68 -70 0
64 68 70 0
-71 -35 0
71 35 0
-72 35 0
-72 -23 0
-71 -72 0
23 71 72 -35 0
-73 35 0
73 -35 0
-23 -74 0
-74 -73 0
23 74 73 0
-75 -35 0
-74 -75 0
75 74 35 0
-76 -75 0
-72 -76 0
75 76 72 0
-77 35 0
-77 -23 0
73 -77 0
23 -73 77 -35 0
-77 -78 0
-75 -78 0
75 78 77 0
-79 78 -48 0
76 -79 48 0
-78 79 -48 0
-76 48 79 0
-79 -80 0
79 80 0
-80 -82 0
80 82 0
-82 -83 0
82 83 0
83 -84 0
-70 -84 0
-69 -84 0
84 69 70 -83 0
-84 -86 0
84 86 0
-87 -48 0
87 48 0
-88 -23 0
-88 -87 0
23 88 87 0
-23 -89 0
-89 87 0
23 -87 89 0
-35 -90 89 0
-88 -90 35 0
-89 90 -35 0
90 88 35 0
-91 48 0
91 -48 0
-92 -23 0
-92 -91 0
23 91 92 0
-93 -23 0
-93 91 0
23 93 -91 0
-93 -94 -35 0
-94 92 35 0
-35 93 94 0
-92 94 35 0
-95 94 -48 0
-95 90 48 0
-94 95 -48 0
-90 48 95 0
-96 -23 0
23 96 0
48 -97 0
-97 -35 0
-97 96 0
-96 97 35 -48 0
-98 48 0
-98 35 0
-35 98 -48 0
-99 -48 0
-98 -99 0
-97 -99 0
48 97 98 99 0
-100 95 0
-95 100 0
-100 -101 0
101 100 0
101 -102 0
-86 -102 0
102 86 -101 0
-102 -104 0
102 104 0
-105 -83 0
-70 -105 0
83 105 70 0
-105 -107 0
107 105 0
-108 -101 0
-107 -108 0
101 107 108 0
-108 -110 0
110 108 0
-115 -23 0
23 115 0
115 -35 -116 0
-115 116 -35 0
116 35 0
116 -117 -48 0
117 -48 -116 0
117 48 0
117 -123 0
123 -117 0
-124 -123 0
123 124 0
110 -124 -125 0
-125 104 124 0
-110 -124 125 0
-104 124 125 0
-125 -126 0
125 126 0
-64 126 0
64 -128 0
126 -128 0
128 -64 -126 0
126 -130 0
129 -130 0
130 -129 -126 0
-126 -134 0
133 -134 0
126 -133 134 0
-126 -135 0
-129 -135 0
-133 -135 0
126 129 133 135 0
-83 -136 0
-64 -136 0
64 83 136 0
83 -137 0
-68 -137 0
-136 -137 0
68 -83 136 137 0
83 -138 0
-64 -138 0
64 -83 138 0
-68 -139 0
-138 -139 0
68 138 139 0
-83 -140 0
-139 -140 0
83 139 140 0
-140 -141 0
-137 -141 0
137 140 141 0
83 -142 0
-68 -142 0
138 -142 0
68 -83 -138 142 0
-142 -143 0
-140 -143 0
140 142 143 0
-101 143 -144 0
101 141 -144 0
-101 -143 144 0
101 -141 144 0
-124 -145 0
-144 -145 0
124 144 145 0
83 -146 0
124 -146 0
-83 -124 146 0
-146 -147 0
-145 -147 0
145 146 147 0
-147 -148 0
147 148 0
148 -149 0
-135 -149 0
-134 -149 0
134 135 -148 149 0
126 -150 0
147 -150 0
-126 -147 150 0
-150 -151 0
-149 -151 0
149 150 151 0
-101 -152 0
-64 -152 0
64 101 152 0
-68 -153 0
-152 -153 0
68 152 153 0
-68 -154 0
152 -154 0
68 -152 154 0
-83 154 -155 0
83 -153 -155 0
-83 -154 155 0
83 153 155 0
101 -156 0
-64 -156 0
64 -101 156 0
-68 -157 0
-156 -157 0
68 156 157 0
-68 -158 0
156 -158 0
68 -156 158 0
-83 -158 -159 0
83 157 -159 0
-83 158 159 0
83 -157 159 0
-101 159 -160 0
101 155 -160 0
-101 -159 160 0
101 -155 160 0
-64 -161 0
-68 -161 0
64 68 161 0
101 -162 0
-83 -162 0
161 -162 0
83 -101 -161 162 0
101 -163 0
83 -163 0
-83 -101 163 0
-101 -164 0
-163 -164 0
-162 -164 0
101 162 163 164 0
-124 164 -165 0
124 160 -165 0
-124 -164 165 0
124 -160 165 0
-165 -166 0
165 166 0
166 -167 0
-151 -167 0
151 -166 167 0
126 -168 0
165 -168 0
-126 -165 168 0
-168 -169 0
-167 -169 0
167 168 169 0
-148 -170 0
-135 -170 0
135 148 170 0
126 -171 0
148 -171 0
-126 -148 171 0
-171 -172 0
-170 -172 0
170 171 172 0
-166 -173 0
-172 -173 0
166 172 173 0
126 -174 0
166 -174 0
-126 -166 174 0
-174 -175 0
-173 -175 0
173 174 175 0
124 -176 0
-64 -176 0
64 -124 176 0
-68 -177 0
176 -177 0
68 -176 177 0
-124 -178 0
-64 -178 0
64 124 178 0
-68 -179 0
-178 -179 0
68 178 179 0
-68 -180 0
-176 -180 0
68 176 180 0
-83 180 -181 0
83 -179 -181 0
-83 -180 181 0
83 179 181 0
-101 181 -182 0
101 -177 -182 0
-101 -181 182 0
101 177 182 0
-83 -183 0
124 -183 0
161 -183 0
83 -124 -161 183 0
-146 -184 0
-183 -184 0
146 183 184 0
-101 -185 0
-184 -185 0
101 184 185 0
101 -186 0
124 -186 0
-101 -124 186 0
-186 -187 0
-185 -187 0
185 186 187 0
-124 187 -188 0
124 182 -188 0
-124 -187 188 0
124 -182 188 0
-188 -189 0
188 189 0
175 -189 -190 0
169 189 -190 0
-175 -189 190 0
-169 189 190 0
-190 -191 0
190 191 0
129 -192 0
-191 -192 0
-129 191 192 0
-191 -196 0
195 -196 0
191 -195 196 0
-191 -198 0
-197 -198 0
-195 -198 0
191 195 197 198 0
-148 -199 0
-129 -199 0
129 148 199 0
148 -200 0
-133 -200 0
-199 -200 0
133 -148 199 200 0
148 -201 0
-129 -201 0
129 -148 201 0
-133 -202 0
-201 -202 0
133 201 202 0
-148 -203 0
-202 -203 0
148 202 203 0
-203 -204 0
-200 -204 0
200 203 204 0
148 -205 0
-133 -205 0
201 -205 0
133 -148 -201 205 0
-205 -206 0
-203 -206 0
203 205 206 0
-166 206 -207 0
166 204 -207 0
-166 -206 207 0
166 -204 207 0
-189 -208 0
-207 -208 0
189 207 208 0
148 -209 0
189 -209 0
-148 -189 209 0
-209 -210 0
-208 -210 0
208 209 210 0
-210 -211 0
210 211 0
211 -212 0
-198 -212 0
-196 -212 0
196 198 -211 212 0
191 -213 0
210 -213 0
-191 -210 213 0
-213 -214 0
-212 -214 0
212 213 214 0
-166 -215 0
-129 -215 0
129 166 215 0
-133 -216 0
-215 -216 0
133 215 216 0
-133 -217 0
215 -217 0
133 -215 217 0
-148 217 -218 0
148 -216 -218 0
-148 -217 218 0
148 216 218 0
166 -219 0
-129 -219 0
129 -166 219 0
-133 -220 0
-219 -220 0
133 219 220 0
-133 -221 0
219 -221 0
133 -219 221 0
-148 -221 -222 0
148 220 -222 0
-148 221 222 0
148 -220 222 0
-166 222 -223 0
166 218 -223 0
-166 -222 223 0
166 -218 223 0
-129 -224 0
-133 -224 0
129 133 224 0
166 -225 0
-148 -225 0
224 -225 0
148 -166 -224 225 0
166 -226 0
148 -226 0
-148 -166 226 0
-166 -227 0
-226 -227 0
-225 -227 0
166 225 226 227 0
-189 227 -228 0
189 223 -228 0
-189 -227 228 0
189 -223 228 0
-228 -229 0
228 229 0
229 -230 0
-214 -230 0
214 -229 230 0
191 -231 0
228 -231 0
-191 -228 231 0
-231 -232 0
-230 -232 0
230 231 232 0
-211 -233 0
-198 -233 0
198 211 233 0
191 -234 0
211 -234 0
-191 -211 234 0
-234 -235 0
-233 -235 0
233 234 235 0
-229 -236 0
-235 -236 0
229 235 236 0
191 -237 0
229 -237 0
-191 -229 237 0
-237 -238 0
-236 -238 0
236 237 238 0
189 -239 0
-129 -239 0
129 -189 239 0
-133 -240 0
239 -240 0
133 -239 240 0
-189 -241 0
-129 -241 0
129 189 241 0
-133 -242 0
-241 -242 0
133 241 242 0
-133 -243 0
-239 -243 0
133 239 243 0
-148 243 -244 0
148 -242 -244 0
-148 -243 244 0
148 242 244 0
-166 244 -245 0
166 -240 -245 0
-166 -244 245 0
166 240 245 0
-148 -246 0
189 -246 0
224 -246 0
148 -189 -224 246 0
-209 -247 0
-246 -247 0
209 246 247 0
-166 -248 0
-247 -248 0
166 247 248 0
166 -249 0
189 -249 0
-166 -189 249 0
-249 -250 0
-248 -250 0
248 249 250 0
-189 250 -251 0
189 245 -251 0
-189 -250 251 0
189 -245 251 0
-251 -252 0
251 252 0
238 -252 -253 0
232 252 -253 0
-238 -252 253 0
-232 252 253 0
-253 -254 0
253 254 0
197 -255 0
-254 -255 0
-197 254 255 0
34 27 125 0
